# Solution for model GasLib-40
# Objective value = 8.9473289596003852e+01
loadshed[innode_1] 0
loadshed[innode_2] 0
loadshed[innode_3] 0
loadshed[innode_4] 0
loadshed[innode_5] 0
loadshed[innode_6] 0
loadshed[innode_7] 0
loadshed[innode_8] 0
loadshed[source_1] 5.3791691626465465e-02
loadshed[source_2] 1.9991958000109289e-01
loadshed[source_3] 3.1225199223468125e-01
loadshed[sink_1] 1
loadshed[sink_2] 0
loadshed[sink_3] 0
loadshed[sink_4] 0
loadshed[sink_5] 9.9361769526988775e-01
loadshed[sink_6] 0
loadshed[sink_7] 0
loadshed[sink_8] 0
loadshed[sink_9] 0
loadshed[sink_10] 0
loadshed[sink_11] 0
loadshed[sink_12] 1
loadshed[sink_13] 0
loadshed[sink_14] 0
loadshed[sink_15] 0
loadshed[sink_16] 0
loadshed[sink_17] 0
loadshed[sink_18] 0
loadshed[sink_19] 0
loadshed[sink_20] 0
loadshed[sink_21] 1
loadshed[sink_22] 4.7967888308834278e-01
loadshed[sink_23] 0
loadshed[sink_24] 9.9768163897703621e-01
loadshed[sink_25] 0
loadshed[sink_26] 0
loadshed[sink_27] 0
loadshed[sink_28] 0
loadshed[sink_29] 0
flow[source_1,sink_3] 1.4958633430641328e+02
flow[innode_1,sink_16] 1.6354166666666970e+01
flow[innode_6,sink_13] 5.7528930779341856e+00
flow[sink_13,sink_14] -1.0601273588732482e+01
flow[sink_14,sink_10] -2.6955440255399150e+01
flow[sink_25,sink_26] 0
flow[sink_26,sink_9] 7.4068377070662834e+01
flow[sink_9,sink_18] 5.7714210403996162e+01
flow[sink_26,sink_4] -9.0422543737329491e+01
flow[sink_4,sink_20] 0
flow[sink_18,sink_6] 41.3600437373295
flow[sink_25,innode_8] -1.1687800097307689e+02
flow[sink_6,sink_7] 1.6496458804503433e+01
flow[sink_6,sink_22] 8.5094182661593951e+00
flow[sink_7,sink_24] 3.7914862563053653e-02
flow[sink_22,sink_1] 0
flow[sink_24,sink_21] 0
flow[sink_21,sink_12] 0
flow[sink_7,sink_5] 1.0437727527371170e-01
flow[sink_5,sink_17] 0
flow[sink_17,sink_4] 1.0677671040399613e+02
flow[sink_17,sink_8] -1.2313087707066281e+02
flow[sink_3,sink_23] 16.3541666666697
flow[sink_8,sink_20] -1.3948504373732948e+02
flow[sink_25,sink_20] 1.5583921040399611e+02
flow[sink_25,sink_15] -6.1068269175520449e+01
flow[sink_15,sink_29] -4.5398290406450911e+01
flow[sink_29,sink_28] 1.6354166666667879e+01
flow[sink_29,sink_2] 4.8378312102402873e+01
flow[sink_2,sink_15] 3.2024145435736209e+01
flow[sink_29,innode_7] -1.2648493584218834e+02
flow[innode_4,sink_19] 4.1712315517765290e+01
flow[sink_19,innode_3] 3.7096433973081929e+01
flow[innode_4,innode_5] 6.7013958070967220e+01
flow[sink_27,innode_5] -6.7013958070967220e+01
flow[sink_27,sink_19] 5.0659791404300556e+01
flow[sink_10,sink_11] 3.2708333333333641e+01
flow[sink_10,innode_2] -3.8921506282317551e+01
flow[sink_10,innode_3] -3.7096433973081929e+01
flow[innode_6,sink_25] -5.7528930779341856e+00
flow[sink_11,innode_1] 1.6354166666666970e+01
flow[sink_19,innode_2] 3.8921506282317551e+01
flow[source_3,innode_4] 1.0872627358873251e+02
flow[source_2,innode_7] 1.2648493584218834e+02
flow[sink_3,innode_8] 1.1687800097307689e+02
pressure[innode_1] 7.7114514149080051e+01
pressure[innode_2] 7.9323377814789623e+01
pressure[innode_3] 79.2412319624717
pressure[innode_4] 81.01325
pressure[innode_5] 8.0967154265981833e+01
pressure[innode_6] 7.6004003838001864e+01
pressure[innode_7] 81.01325
pressure[innode_8] 8.0513240028464608e+01
pressure[source_1] 81.01325
pressure[source_2] 81.01325
pressure[source_3] 81.01325
pressure[sink_1] 1.0132500000000002e+00
pressure[sink_2] 7.6404796226597725e+01
pressure[sink_3] 8.0513240028464608e+01
pressure[sink_4] 2.0405564981154448e+01
pressure[sink_5] 1.01325
pressure[sink_6] 1.2831167503342573e+00
pressure[sink_7] 1.0566596925548384e+00
pressure[sink_8] 2.9132266645504693e+01
pressure[sink_9] 4.4758252135018290e+00
pressure[sink_10] 77.2662154566836
pressure[sink_11] 7.7114514149080051e+01
pressure[sink_12] 1.01325
pressure[sink_13] 7.5972289099860944e+01
pressure[sink_14] 7.5991260981976822e+01
pressure[sink_15] 7.6300244449758011e+01
pressure[sink_16] 7.6092864314262371e+01
pressure[sink_17] 2.4486218767476061e+01
pressure[sink_18] 2.3875530631544737e+00
pressure[sink_19] 7.9323377814789623e+01
pressure[sink_20] 3.8852412578020228e+01
pressure[sink_21] 1.01325
pressure[sink_22] 1.0132500000000002e+00
pressure[sink_23] 8.0348522016804822e+01
pressure[sink_24] 1.01325
pressure[sink_25] 7.6004003838001864e+01
pressure[sink_26] 8.9090087463999481e+00
pressure[sink_27] 8.0411062242472781e+01
pressure[sink_28] 7.7334991196771156e+01
pressure[sink_29] 7.7630273470388332e+01
interdiction[source_1,sink_3] 0
interdiction[innode_1,sink_16] 0
interdiction[innode_6,sink_13] 0
interdiction[sink_13,sink_14] 0
interdiction[sink_14,sink_10] 0
interdiction[sink_25,sink_26] 1
interdiction[sink_26,sink_9] 0
interdiction[sink_9,sink_18] 0
interdiction[sink_26,sink_4] 0
interdiction[sink_4,sink_20] 1
interdiction[sink_18,sink_6] 0
interdiction[sink_25,innode_8] 0
interdiction[sink_6,sink_7] 0
interdiction[sink_6,sink_22] 0
interdiction[sink_7,sink_24] 0
interdiction[sink_22,sink_1] 0
interdiction[sink_24,sink_21] 0
interdiction[sink_21,sink_12] 0
interdiction[sink_7,sink_5] 0
interdiction[sink_5,sink_17] 1
interdiction[sink_17,sink_4] 0
interdiction[sink_17,sink_8] 0
interdiction[sink_3,sink_23] 0
interdiction[sink_8,sink_20] 0
interdiction[sink_25,sink_20] 0
interdiction[sink_25,sink_15] 0
interdiction[sink_15,sink_29] 0
interdiction[sink_29,sink_28] 0
interdiction[sink_29,sink_2] 0
interdiction[sink_2,sink_15] 0
interdiction[sink_29,innode_7] 0
interdiction[innode_4,sink_19] 0
interdiction[sink_19,innode_3] 0
interdiction[innode_4,innode_5] 0
interdiction[sink_27,innode_5] 0
interdiction[sink_27,sink_19] 0
interdiction[sink_10,sink_11] 0
interdiction[sink_10,innode_2] 0
interdiction[sink_10,innode_3] 0
interdiction[innode_6,sink_25] 0
interdiction[sink_11,innode_1] 0
interdiction[sink_19,innode_2] 0
interdiction[source_3,innode_4] 0
interdiction[source_2,innode_7] 0
interdiction[sink_3,innode_8] 0
WCcheckFlow[source_1,sink_3] 39
WCcheckFlow[innode_1,sink_16] 1
WCcheckFlow[innode_6,sink_13] 13
WCcheckFlow[sink_13,sink_14] 12
WCcheckFlow[sink_14,sink_10] 11
WCcheckFlow[sink_25,sink_26] 0
WCcheckFlow[sink_26,sink_9] 10
WCcheckFlow[sink_9,sink_18] 9
WCcheckFlow[sink_26,sink_4] -11
WCcheckFlow[sink_4,sink_20] 0
WCcheckFlow[sink_18,sink_6] 8
WCcheckFlow[sink_25,innode_8] -36
WCcheckFlow[sink_6,sink_7] 5
WCcheckFlow[sink_6,sink_22] 2
WCcheckFlow[sink_7,sink_24] 3
WCcheckFlow[sink_22,sink_1] 1
WCcheckFlow[sink_24,sink_21] 2
WCcheckFlow[sink_21,sink_12] 1
WCcheckFlow[sink_7,sink_5] 1
WCcheckFlow[sink_5,sink_17] 0
WCcheckFlow[sink_17,sink_4] 12
WCcheckFlow[sink_17,sink_8] -13
WCcheckFlow[sink_3,sink_23] 1
WCcheckFlow[sink_8,sink_20] -14
WCcheckFlow[sink_25,sink_20] 15
WCcheckFlow[sink_25,sink_15] 6
WCcheckFlow[sink_15,sink_29] 5
WCcheckFlow[sink_29,sink_28] 1
WCcheckFlow[sink_29,sink_2] 1
WCcheckFlow[sink_2,sink_15] 0
WCcheckFlow[sink_29,innode_7] 2
WCcheckFlow[innode_4,sink_19] -4
WCcheckFlow[sink_19,innode_3] -5
WCcheckFlow[innode_4,innode_5] 2
WCcheckFlow[sink_27,innode_5] -1
WCcheckFlow[sink_27,sink_19] 0
WCcheckFlow[sink_10,sink_11] 3
WCcheckFlow[sink_10,innode_2] 1
WCcheckFlow[sink_10,innode_3] 6
WCcheckFlow[innode_6,sink_25] -14
WCcheckFlow[sink_11,innode_1] 2
WCcheckFlow[sink_19,innode_2] 0
WCcheckFlow[source_3,innode_4] -1
WCcheckFlow[source_2,innode_7] -1
WCcheckFlow[sink_3,innode_8] 37
